(set-info :smt-lib-version 2.6)
(set-logic QF_NIA)
(set-info :source |AProve team, see http://aprove.informatik.rwth-aachen.de/, submitted for SMT-COMP 2014|)
(set-info :category "industrial")
(set-info :status sat)
(declare-fun a__4 () Int)
(declare-fun a__2 () Int)
(declare-fun a__8 () Int)
(declare-fun a__12 () Int)
(declare-fun a__16 () Int)
(declare-fun a__20 () Int)
(declare-fun a__21 () Int)
(declare-fun a__23 () Int)
(declare-fun a__24 () Int)
(declare-fun a__26 () Int)
(declare-fun a__30 () Int)
(declare-fun a__34 () Int)
(declare-fun a__38 () Int)
(declare-fun a__42 () Int)
(declare-fun a__45 () Int)
(declare-fun a__47 () Int)
(declare-fun a__50 () Int)
(declare-fun a__53 () Int)
(declare-fun a__55 () Int)
(declare-fun a__59 () Int)
(declare-fun a__63 () Int)
(declare-fun a__67 () Int)
(declare-fun a__71 () Int)
(declare-fun a__74 () Int)
(declare-fun a__76 () Int)
(declare-fun a__79 () Int)
(declare-fun a__81 () Int)
(declare-fun a__83 () Int)
(declare-fun a__86 () Int)
(declare-fun a__88 () Int)
(declare-fun a__91 () Int)
(declare-fun a__94 () Int)
(declare-fun a__98 () Int)
(declare-fun a__102 () Int)
(declare-fun a__106 () Int)
(declare-fun a__110 () Int)
(declare-fun a__112 () Int)
(declare-fun a__115 () Int)
(declare-fun a__3 () Int)
(declare-fun a__7 () Int)
(declare-fun a__11 () Int)
(declare-fun a__15 () Int)
(declare-fun a__19 () Int)
(declare-fun a__22 () Int)
(declare-fun a__25 () Int)
(declare-fun a__29 () Int)
(declare-fun a__33 () Int)
(declare-fun a__37 () Int)
(declare-fun a__41 () Int)
(declare-fun a__44 () Int)
(declare-fun a__46 () Int)
(declare-fun a__49 () Int)
(declare-fun a__52 () Int)
(declare-fun a__54 () Int)
(declare-fun a__58 () Int)
(declare-fun a__62 () Int)
(declare-fun a__66 () Int)
(declare-fun a__70 () Int)
(declare-fun a__73 () Int)
(declare-fun a__75 () Int)
(declare-fun a__78 () Int)
(declare-fun a__80 () Int)
(declare-fun a__82 () Int)
(declare-fun a__85 () Int)
(declare-fun a__87 () Int)
(declare-fun a__90 () Int)
(declare-fun a__93 () Int)
(declare-fun a__97 () Int)
(declare-fun a__101 () Int)
(declare-fun a__105 () Int)
(declare-fun a__109 () Int)
(declare-fun a__111 () Int)
(declare-fun a__114 () Int)
(assert (and (>= (+ (* a__4 a__2) (* (- 0 1) a__2)) 0) (>= (+ (* a__8 a__2) (* (- 0 1) a__2)) 0) (>= (+ (* a__12 a__2) (* (- 0 1) a__2)) 0) (>= (+ (* a__16 a__2) (* (- 0 1) a__2)) 0) (>= (+ (* a__20 a__2) (* (- 0 1) a__2)) 0) (>= (+ (* a__21 a__2) (* (- 0 1) a__2)) 0) (>= (+ (* a__23 a__2) (* (- 0 1) a__2)) 0) (>= (+ (* a__24 a__2) (* (- 0 1) a__2)) 0) (>= (+ (* a__26 a__2) (* (- 0 1) a__2)) 0) (>= (+ (* a__30 a__2) (* (- 0 1) a__2)) 0) (>= (+ (* a__34 a__2) (* (- 0 1) a__2)) 0) (>= (+ (* a__38 a__2) (* (- 0 1) a__2)) 0) (>= (+ (* a__42 a__2) (* (- 0 1) a__2)) 0) (>= (+ (* a__45 a__2) (* (- 0 1) a__2)) 0) (>= (+ (* a__47 a__2) (* (- 0 1) a__2)) 0) (>= (+ (* a__50 a__2) (* (- 0 1) a__2)) 0) (>= (+ (* a__53 a__2) (* (- 0 1) a__2)) 0) (>= (+ (* a__55 a__2) (* (- 0 1) a__2)) 0) (>= (+ (* a__59 a__2) (* (- 0 1) a__2)) 0) (>= (+ (* a__63 a__2) (* (- 0 1) a__2)) 0) (>= (+ (* a__67 a__2) (* (- 0 1) a__2)) 0) (>= (+ (* a__71 a__2) (* (- 0 1) a__2)) 0) (>= (+ (* a__74 a__2) (* (- 0 1) a__2)) 0) (>= (+ (* a__76 a__2) (* (- 0 1) a__2)) 0) (>= (+ (* a__79 a__2) (* (- 0 1) a__2)) 0) (>= (+ (* a__81 a__2) (* (- 0 1) a__2)) 0) (>= (+ (* a__83 a__2) (* (- 0 1) a__2)) 0) (>= (+ (* a__86 a__2) (* (- 0 1) a__2)) 0) (>= (+ (* a__88 a__2) (* (- 0 1) a__2)) 0) (>= (+ (* a__91 a__2) (* (- 0 1) a__2)) 0) (>= (+ (* a__94 a__2) (* (- 0 1) a__2)) 0) (>= (+ (* a__98 a__2) (* (- 0 1) a__2)) 0) (>= (+ (* a__102 a__2) (* (- 0 1) a__2)) 0) (>= (+ (* a__106 a__2) (* (- 0 1) a__2)) 0) (>= (+ (* a__110 a__2) (* (- 0 1) a__2)) 0) (>= (+ (* a__112 a__2) (* (- 0 1) a__2)) 0) (>= (+ (* a__115 a__2) (* (- 0 1) a__2)) 0) (>= (* a__3 a__2) 0) (>= (* a__7 a__2) 0) (>= (* a__11 a__2) 0) (>= (* a__15 a__2) 0) (>= (* a__19 a__2) 0) (>= (* a__22 a__2) 0) (>= (* a__25 a__2) 0) (>= (* a__29 a__2) 0) (>= (* a__33 a__2) 0) (>= (* a__37 a__2) 0) (>= (* a__41 a__2) 0) (>= (* a__44 a__2) 0) (>= (* a__46 a__2) 0) (>= (* a__49 a__2) 0) (>= (* a__52 a__2) 0) (>= (* a__54 a__2) 0) (>= (* a__58 a__2) 0) (>= (* a__62 a__2) 0) (>= (* a__66 a__2) 0) (>= (* a__70 a__2) 0) (>= (* a__73 a__2) 0) (>= (* a__75 a__2) 0) (>= (* a__78 a__2) 0) (>= (* a__80 a__2) 0) (>= (* a__82 a__2) 0) (>= (* a__85 a__2) 0) (>= (* a__87 a__2) 0) (>= (* a__90 a__2) 0) (>= (* a__93 a__2) 0) (>= (* a__97 a__2) 0) (>= (* a__101 a__2) 0) (>= (* a__105 a__2) 0) (>= (* a__109 a__2) 0) (>= (* a__111 a__2) 0) (>= (* a__114 a__2) 0) (not (and (= (* a__3 a__2) 0) (= (* a__7 a__2) 0) (= (* a__11 a__2) 0) (= (* a__15 a__2) 0) (= (* a__19 a__2) 0) (= (* a__22 a__2) 0) (= (* a__25 a__2) 0) (= (* a__29 a__2) 0) (= (* a__33 a__2) 0) (= (* a__37 a__2) 0) (= (* a__41 a__2) 0) (= (* a__44 a__2) 0) (= (* a__46 a__2) 0) (= (* a__49 a__2) 0) (= (* a__52 a__2) 0) (= (* a__54 a__2) 0) (= (* a__58 a__2) 0) (= (* a__62 a__2) 0) (= (* a__66 a__2) 0) (= (* a__70 a__2) 0) (= (* a__73 a__2) 0) (= (* a__75 a__2) 0) (= (* a__78 a__2) 0) (= (* a__80 a__2) 0) (= (* a__82 a__2) 0) (= (* a__85 a__2) 0) (= (* a__87 a__2) 0) (= (* a__90 a__2) 0) (= (* a__93 a__2) 0) (= (* a__97 a__2) 0) (= (* a__101 a__2) 0) (= (* a__105 a__2) 0) (= (* a__109 a__2) 0) (= (* a__111 a__2) 0) (= (* a__114 a__2) 0))) (>= a__4 0) (>= a__2 0) (>= a__8 0) (>= a__12 0) (>= a__16 0) (>= a__20 0) (>= a__21 0) (>= a__23 0) (>= a__24 0) (>= a__26 0) (>= a__30 0) (>= a__34 0) (>= a__38 0) (>= a__42 0) (>= a__45 0) (>= a__47 0) (>= a__50 0) (>= a__53 0) (>= a__55 0) (>= a__59 0) (>= a__63 0) (>= a__67 0) (>= a__71 0) (>= a__74 0) (>= a__76 0) (>= a__79 0) (>= a__81 0) (>= a__83 0) (>= a__86 0) (>= a__88 0) (>= a__91 0) (>= a__94 0) (>= a__98 0) (>= a__102 0) (>= a__106 0) (>= a__110 0) (>= a__112 0) (>= a__115 0) (>= a__3 0) (>= a__7 0) (>= a__11 0) (>= a__15 0) (>= a__19 0) (>= a__22 0) (>= a__25 0) (>= a__29 0) (>= a__33 0) (>= a__37 0) (>= a__41 0) (>= a__44 0) (>= a__46 0) (>= a__49 0) (>= a__52 0) (>= a__54 0) (>= a__58 0) (>= a__62 0) (>= a__66 0) (>= a__70 0) (>= a__73 0) (>= a__75 0) (>= a__78 0) (>= a__80 0) (>= a__82 0) (>= a__85 0) (>= a__87 0) (>= a__90 0) (>= a__93 0) (>= a__97 0) (>= a__101 0) (>= a__105 0) (>= a__109 0) (>= a__111 0) (>= a__114 0)))
(check-sat)
;;(get-assignment)
;;(get-model)
(exit)
